p cnf 68 239
1 2 3 4 0
-1 -2 0
-1 -3 0
-1 -4 0
-2 -3 0
-2 -4 0
-3 -4 0
5 6 7 8 0
-5 -6 0
-5 -7 0
-5 -8 0
-6 -7 0
-6 -8 0
-7 -8 0
9 10 11 12 0
-9 -10 0
-9 -11 0
-9 -12 0
-10 -11 0
-10 -12 0
-11 -12 0
13 14 15 16 0
-13 -14 0
-13 -15 0
-13 -16 0
-14 -15 0
-14 -16 0
-15 -16 0
17 18 19 20 0
-17 -18 0
-17 -19 0
-17 -20 0
-18 -19 0
-18 -20 0
-19 -20 0
21 22 23 24 0
-21 -22 0
-21 -23 0
-21 -24 0
-22 -23 0
-22 -24 0
-23 -24 0
25 26 27 28 0
-25 -26 0
-25 -27 0
-25 -28 0
-26 -27 0
-26 -28 0
-27 -28 0
29 30 31 32 0
-29 -30 0
-29 -31 0
-29 -32 0
-30 -31 0
-30 -32 0
-31 -32 0
33 34 35 36 0
-33 -34 0
-33 -35 0
-33 -36 0
-34 -35 0
-34 -36 0
-35 -36 0
37 38 39 40 0
-37 -38 0
-37 -39 0
-37 -40 0
-38 -39 0
-38 -40 0
-39 -40 0
41 42 43 44 0
-41 -42 0
-41 -43 0
-41 -44 0
-42 -43 0
-42 -44 0
-43 -44 0
45 46 47 48 0
-45 -46 0
-45 -47 0
-45 -48 0
-46 -47 0
-46 -48 0
-47 -48 0
49 50 51 52 0
-49 -50 0
-49 -51 0
-49 -52 0
-50 -51 0
-50 -52 0
-51 -52 0
53 54 55 56 0
-53 -54 0
-53 -55 0
-53 -56 0
-54 -55 0
-54 -56 0
-55 -56 0
57 58 59 60 0
-57 -58 0
-57 -59 0
-57 -60 0
-58 -59 0
-58 -60 0
-59 -60 0
61 62 63 64 0
-61 -62 0
-61 -63 0
-61 -64 0
-62 -63 0
-62 -64 0
-63 -64 0
65 66 67 68 0
-65 -66 0
-65 -67 0
-65 -68 0
-66 -67 0
-66 -68 0
-67 -68 0
-1 -9 0
-2 -10 0
-3 -11 0
-4 -12 0
-1 -29 0
-2 -30 0
-3 -31 0
-4 -32 0
-1 -45 0
-2 -46 0
-3 -47 0
-4 -48 0
-5 -9 0
-6 -10 0
-7 -11 0
-8 -12 0
-5 -13 0
-6 -14 0
-7 -15 0
-8 -16 0
-5 -17 0
-6 -18 0
-7 -19 0
-8 -20 0
-5 -21 0
-6 -22 0
-7 -23 0
-8 -24 0
-5 -41 0
-6 -42 0
-7 -43 0
-8 -44 0
-5 -65 0
-6 -66 0
-7 -67 0
-8 -68 0
-9 -13 0
-10 -14 0
-11 -15 0
-12 -16 0
-9 -17 0
-10 -18 0
-11 -19 0
-12 -20 0
-9 -25 0
-10 -26 0
-11 -27 0
-12 -28 0
-13 -29 0
-14 -30 0
-15 -31 0
-16 -32 0
-13 -33 0
-14 -34 0
-15 -35 0
-16 -36 0
-13 -37 0
-14 -38 0
-15 -39 0
-16 -40 0
-13 -41 0
-14 -42 0
-15 -43 0
-16 -44 0
-13 -49 0
-14 -50 0
-15 -51 0
-16 -52 0
-13 -57 0
-14 -58 0
-15 -59 0
-16 -60 0
-17 -21 0
-18 -22 0
-19 -23 0
-20 -24 0
-17 -37 0
-18 -38 0
-19 -39 0
-20 -40 0
-21 -25 0
-22 -26 0
-23 -27 0
-24 -28 0
-21 -33 0
-22 -34 0
-23 -35 0
-24 -36 0
-21 -45 0
-22 -46 0
-23 -47 0
-24 -48 0
-25 -53 0
-26 -54 0
-27 -55 0
-28 -56 0
-29 -49 0
-30 -50 0
-31 -51 0
-32 -52 0
-29 -61 0
-30 -62 0
-31 -63 0
-32 -64 0
-33 -65 0
-34 -66 0
-35 -67 0
-36 -68 0
-37 -57 0
-38 -58 0
-39 -59 0
-40 -60 0
-41 -53 0
-42 -54 0
-43 -55 0
-44 -56 0
-53 -61 0
-54 -62 0
-55 -63 0
-56 -64 0
